NAME : rnd48_50.tsp
TYPE : TSP
DIMENSION : 50
EDGE_WEIGHT_TYPE : EUC_2D
NODE_COORD_SECTION
1 882 118
2 406 231
3 984 368
4 707 642
5 406 76
6 515 499
7 612 621
8 720 3
9 4 676
10 138 598
11 425 301
12 295 414
13 898 576
14 458 240
15 390 259
16 822 754
17 768 145
18 791 669
19 550 337
20 581 99
21 453 971
22 525 952
23 823 493
24 671 153
25 527 542
26 201 836
27 952 400
28 902 475
29 586 950
30 914 104
31 310 553
32 421 571
33 392 281
34 710 612
35 290 478
36 903 645
37 860 568
38 783 129
39 897 241
40 642 627
41 338 491
42 315 164
43 860 573
44 300 634
45 157 180
46 752 842
47 813 470
48 450 515
49 979 679
50 351 622
